5 5
3 62 4 53 0 48 2 91 1 86
4 66 0 48 1 94 3 59 2 71
2 57 0 76 4 3 3 81 1 32
0 8 4 87 3 30 1 15 2 74
2 55 0 38 1 15 4 30 3 46
-1
0 1 3 4 5
0 2 3 4 5
0 1 3 4 5
0 3 4 5
0 1 3 5
-2
93 183 362 489
156 312 388 459
70 179 232 329
198 221 258
64 157 197

422 9
15 6 2 21 11
7 22 18 4 14
20 10 3 19 9
0 17 8 13 24
5 1 16 12 23
